; benchmark generated from python API
(set-info :status unknown)
(declare-fun cell_1_3 () Int)
(declare-fun cell_1_6 () Int)
(declare-fun cell_2_6 () Int)
(declare-fun cell_2_8 () Int)
(declare-fun cell_3_3 () Int)
(declare-fun cell_3_9 () Int)
(declare-fun cell_4_4 () Int)
(declare-fun cell_4_5 () Int)
(declare-fun cell_5_1 () Int)
(declare-fun cell_5_8 () Int)
(declare-fun cell_6_1 () Int)
(declare-fun cell_6_9 () Int)
(declare-fun cell_7_2 () Int)
(declare-fun cell_7_4 () Int)
(declare-fun cell_8_2 () Int)
(declare-fun cell_8_7 () Int)
(declare-fun cell_9_5 () Int)
(declare-fun cell_9_7 () Int)
(declare-fun cell_1_1 () Int)
(declare-fun cell_2_1 () Int)
(declare-fun cell_3_1 () Int)
(declare-fun cell_4_1 () Int)
(declare-fun cell_7_1 () Int)
(declare-fun cell_8_1 () Int)
(declare-fun cell_9_1 () Int)
(declare-fun cell_1_2 () Int)
(declare-fun cell_2_2 () Int)
(declare-fun cell_3_2 () Int)
(declare-fun cell_4_2 () Int)
(declare-fun cell_5_2 () Int)
(declare-fun cell_6_2 () Int)
(declare-fun cell_9_2 () Int)
(declare-fun cell_2_3 () Int)
(declare-fun cell_4_3 () Int)
(declare-fun cell_5_3 () Int)
(declare-fun cell_6_3 () Int)
(declare-fun cell_7_3 () Int)
(declare-fun cell_8_3 () Int)
(declare-fun cell_9_3 () Int)
(declare-fun cell_1_4 () Int)
(declare-fun cell_2_4 () Int)
(declare-fun cell_3_4 () Int)
(declare-fun cell_5_4 () Int)
(declare-fun cell_6_4 () Int)
(declare-fun cell_8_4 () Int)
(declare-fun cell_9_4 () Int)
(declare-fun cell_1_5 () Int)
(declare-fun cell_2_5 () Int)
(declare-fun cell_3_5 () Int)
(declare-fun cell_5_5 () Int)
(declare-fun cell_6_5 () Int)
(declare-fun cell_7_5 () Int)
(declare-fun cell_8_5 () Int)
(declare-fun cell_3_6 () Int)
(declare-fun cell_4_6 () Int)
(declare-fun cell_5_6 () Int)
(declare-fun cell_6_6 () Int)
(declare-fun cell_7_6 () Int)
(declare-fun cell_8_6 () Int)
(declare-fun cell_9_6 () Int)
(declare-fun cell_1_7 () Int)
(declare-fun cell_2_7 () Int)
(declare-fun cell_3_7 () Int)
(declare-fun cell_4_7 () Int)
(declare-fun cell_5_7 () Int)
(declare-fun cell_6_7 () Int)
(declare-fun cell_7_7 () Int)
(declare-fun cell_1_8 () Int)
(declare-fun cell_3_8 () Int)
(declare-fun cell_4_8 () Int)
(declare-fun cell_6_8 () Int)
(declare-fun cell_7_8 () Int)
(declare-fun cell_8_8 () Int)
(declare-fun cell_9_8 () Int)
(declare-fun cell_1_9 () Int)
(declare-fun cell_2_9 () Int)
(declare-fun cell_4_9 () Int)
(declare-fun cell_5_9 () Int)
(declare-fun cell_7_9 () Int)
(declare-fun cell_8_9 () Int)
(declare-fun cell_9_9 () Int)
(assert
 (= cell_1_3 1))
(assert
 (= cell_1_6 2))
(assert
 (= cell_2_6 1))
(assert
 (= cell_2_8 2))
(assert
 (= cell_3_3 2))
(assert
 (= cell_3_9 1))
(assert
 (= cell_4_4 2))
(assert
 (= cell_4_5 1))
(assert
 (= cell_5_1 2))
(assert
 (= cell_5_8 1))
(assert
 (= cell_6_1 1))
(assert
 (= cell_6_9 2))
(assert
 (= cell_7_2 2))
(assert
 (= cell_7_4 1))
(assert
 (= cell_8_2 1))
(assert
 (= cell_8_7 2))
(assert
 (= cell_9_5 2))
(assert
 (= cell_9_7 1))
(assert
 (let (($x2514 (= cell_1_1 9)))
 (let (($x1995 (= cell_1_1 8)))
 (let (($x1481 (= cell_1_1 7)))
 (let (($x3438 (= cell_1_1 6)))
 (let (($x1347 (= cell_1_1 5)))
 (let (($x155 (= cell_1_1 4)))
 (let (($x3852 (= cell_1_1 3)))
 (let (($x1225 (= cell_1_1 2)))
 (let (($x431 (= cell_1_1 1)))
 (or $x431 $x1225 $x3852 $x155 $x1347 $x3438 $x1481 $x1995 $x2514)))))))))))
(assert
 (let (($x2120 (= cell_2_1 9)))
 (let (($x1982 (= cell_2_1 8)))
 (let (($x868 (= cell_2_1 7)))
 (let (($x365 (= cell_2_1 6)))
 (let (($x238 (= cell_2_1 5)))
 (let (($x1584 (= cell_2_1 4)))
 (let (($x2906 (= cell_2_1 3)))
 (let (($x3735 (= cell_2_1 2)))
 (let (($x3806 (= cell_2_1 1)))
 (or $x3806 $x3735 $x2906 $x1584 $x238 $x365 $x868 $x1982 $x2120)))))))))))
(assert
 (let (($x2009 (= cell_3_1 9)))
 (let (($x2592 (= cell_3_1 8)))
 (let (($x1136 (= cell_3_1 7)))
 (let (($x1903 (= cell_3_1 6)))
 (let (($x861 (= cell_3_1 5)))
 (let (($x1246 (= cell_3_1 4)))
 (let (($x2932 (= cell_3_1 3)))
 (let (($x2576 (= cell_3_1 2)))
 (let (($x1568 (= cell_3_1 1)))
 (or $x1568 $x2576 $x2932 $x1246 $x861 $x1903 $x1136 $x2592 $x2009)))))))))))
(assert
 (let (($x2589 (= cell_4_1 9)))
 (let (($x2496 (= cell_4_1 8)))
 (let (($x2529 (= cell_4_1 7)))
 (let (($x413 (= cell_4_1 6)))
 (let (($x347 (= cell_4_1 5)))
 (let (($x3411 (= cell_4_1 4)))
 (let (($x2590 (= cell_4_1 3)))
 (let (($x1692 (= cell_4_1 2)))
 (let (($x81 (= cell_4_1 1)))
 (or $x81 $x1692 $x2590 $x3411 $x347 $x413 $x2529 $x2496 $x2589)))))))))))
(assert
 (let (($x3493 (= cell_5_1 2)))
 (or (= cell_5_1 1) $x3493 (= cell_5_1 3) (= cell_5_1 4) (= cell_5_1 5) (= cell_5_1 6) (= cell_5_1 7) (= cell_5_1 8) (= cell_5_1 9))))
(assert
 (let (($x820 (= cell_6_1 1)))
 (or $x820 (= cell_6_1 2) (= cell_6_1 3) (= cell_6_1 4) (= cell_6_1 5) (= cell_6_1 6) (= cell_6_1 7) (= cell_6_1 8) (= cell_6_1 9))))
(assert
 (let (($x1897 (= cell_7_1 9)))
 (let (($x1538 (= cell_7_1 8)))
 (let (($x3646 (= cell_7_1 7)))
 (let (($x79 (= cell_7_1 6)))
 (let (($x2359 (= cell_7_1 5)))
 (let (($x1170 (= cell_7_1 4)))
 (let (($x556 (= cell_7_1 3)))
 (let (($x447 (= cell_7_1 2)))
 (let (($x912 (= cell_7_1 1)))
 (or $x912 $x447 $x556 $x1170 $x2359 $x79 $x3646 $x1538 $x1897)))))))))))
(assert
 (let (($x2115 (= cell_8_1 9)))
 (let (($x1049 (= cell_8_1 8)))
 (let (($x314 (= cell_8_1 7)))
 (let (($x71 (= cell_8_1 6)))
 (let (($x1748 (= cell_8_1 5)))
 (let (($x2760 (= cell_8_1 4)))
 (let (($x719 (= cell_8_1 3)))
 (let (($x2472 (= cell_8_1 2)))
 (let (($x3779 (= cell_8_1 1)))
 (or $x3779 $x2472 $x719 $x2760 $x1748 $x71 $x314 $x1049 $x2115)))))))))))
(assert
 (let (($x1639 (= cell_9_1 9)))
 (let (($x2987 (= cell_9_1 8)))
 (let (($x2285 (= cell_9_1 7)))
 (let (($x2880 (= cell_9_1 6)))
 (let (($x1623 (= cell_9_1 5)))
 (let (($x4119 (= cell_9_1 4)))
 (let (($x430 (= cell_9_1 3)))
 (let (($x911 (= cell_9_1 2)))
 (let (($x1703 (= cell_9_1 1)))
 (or $x1703 $x911 $x430 $x4119 $x1623 $x2880 $x2285 $x2987 $x1639)))))))))))
(assert
 (let (($x1110 (= cell_1_2 9)))
 (let (($x2552 (= cell_1_2 8)))
 (let (($x350 (= cell_1_2 7)))
 (let (($x2289 (= cell_1_2 6)))
 (let (($x2731 (= cell_1_2 5)))
 (let (($x1836 (= cell_1_2 4)))
 (let (($x255 (= cell_1_2 3)))
 (let (($x1559 (= cell_1_2 2)))
 (let (($x300 (= cell_1_2 1)))
 (or $x300 $x1559 $x255 $x1836 $x2731 $x2289 $x350 $x2552 $x1110)))))))))))
(assert
 (let (($x2512 (= cell_2_2 9)))
 (let (($x959 (= cell_2_2 8)))
 (let (($x784 (= cell_2_2 7)))
 (let (($x2437 (= cell_2_2 6)))
 (let (($x1997 (= cell_2_2 5)))
 (let (($x2850 (= cell_2_2 4)))
 (let (($x2356 (= cell_2_2 3)))
 (let (($x108 (= cell_2_2 2)))
 (let (($x2915 (= cell_2_2 1)))
 (or $x2915 $x108 $x2356 $x2850 $x1997 $x2437 $x784 $x959 $x2512)))))))))))
(assert
 (let (($x1001 (= cell_3_2 9)))
 (let (($x337 (= cell_3_2 8)))
 (let (($x1934 (= cell_3_2 7)))
 (let (($x2730 (= cell_3_2 6)))
 (let (($x1867 (= cell_3_2 5)))
 (let (($x1352 (= cell_3_2 4)))
 (let (($x694 (= cell_3_2 3)))
 (let (($x257 (= cell_3_2 2)))
 (let (($x3105 (= cell_3_2 1)))
 (or $x3105 $x257 $x694 $x1352 $x1867 $x2730 $x1934 $x337 $x1001)))))))))))
(assert
 (let (($x2941 (= cell_4_2 9)))
 (let (($x2523 (= cell_4_2 8)))
 (let (($x1314 (= cell_4_2 7)))
 (let (($x2047 (= cell_4_2 6)))
 (let (($x927 (= cell_4_2 5)))
 (let (($x936 (= cell_4_2 4)))
 (let (($x2104 (= cell_4_2 3)))
 (let (($x1478 (= cell_4_2 2)))
 (let (($x1247 (= cell_4_2 1)))
 (or $x1247 $x1478 $x2104 $x936 $x927 $x2047 $x1314 $x2523 $x2941)))))))))))
(assert
 (let (($x2653 (= cell_5_2 9)))
 (let (($x1567 (= cell_5_2 8)))
 (let (($x38 (= cell_5_2 7)))
 (let (($x1791 (= cell_5_2 6)))
 (let (($x2488 (= cell_5_2 5)))
 (let (($x3464 (= cell_5_2 4)))
 (let (($x3081 (= cell_5_2 3)))
 (let (($x2416 (= cell_5_2 2)))
 (let (($x2313 (= cell_5_2 1)))
 (or $x2313 $x2416 $x3081 $x3464 $x2488 $x1791 $x38 $x1567 $x2653)))))))))))
(assert
 (let (($x223 (= cell_6_2 9)))
 (let (($x548 (= cell_6_2 8)))
 (let (($x2156 (= cell_6_2 7)))
 (let (($x3391 (= cell_6_2 6)))
 (let (($x421 (= cell_6_2 5)))
 (let (($x231 (= cell_6_2 4)))
 (let (($x3036 (= cell_6_2 3)))
 (let (($x2239 (= cell_6_2 2)))
 (let (($x958 (= cell_6_2 1)))
 (or $x958 $x2239 $x3036 $x231 $x421 $x3391 $x2156 $x548 $x223)))))))))))
(assert
 (let (($x2926 (= cell_7_2 2)))
 (or (= cell_7_2 1) $x2926 (= cell_7_2 3) (= cell_7_2 4) (= cell_7_2 5) (= cell_7_2 6) (= cell_7_2 7) (= cell_7_2 8) (= cell_7_2 9))))
(assert
 (let (($x3668 (= cell_8_2 1)))
 (or $x3668 (= cell_8_2 2) (= cell_8_2 3) (= cell_8_2 4) (= cell_8_2 5) (= cell_8_2 6) (= cell_8_2 7) (= cell_8_2 8) (= cell_8_2 9))))
(assert
 (let (($x1467 (= cell_9_2 9)))
 (let (($x867 (= cell_9_2 8)))
 (let (($x2172 (= cell_9_2 7)))
 (let (($x78 (= cell_9_2 6)))
 (let (($x824 (= cell_9_2 5)))
 (let (($x874 (= cell_9_2 4)))
 (let (($x785 (= cell_9_2 3)))
 (let (($x1901 (= cell_9_2 2)))
 (let (($x1103 (= cell_9_2 1)))
 (or $x1103 $x1901 $x785 $x874 $x824 $x78 $x2172 $x867 $x1467)))))))))))
(assert
 (let (($x70 (= cell_1_3 1)))
 (or $x70 (= cell_1_3 2) (= cell_1_3 3) (= cell_1_3 4) (= cell_1_3 5) (= cell_1_3 6) (= cell_1_3 7) (= cell_1_3 8) (= cell_1_3 9))))
(assert
 (let (($x1470 (= cell_2_3 9)))
 (let (($x2745 (= cell_2_3 8)))
 (let (($x2960 (= cell_2_3 7)))
 (let (($x1866 (= cell_2_3 6)))
 (let (($x929 (= cell_2_3 5)))
 (let (($x1566 (= cell_2_3 4)))
 (let (($x2234 (= cell_2_3 3)))
 (let (($x815 (= cell_2_3 2)))
 (let (($x105 (= cell_2_3 1)))
 (or $x105 $x815 $x2234 $x1566 $x929 $x1866 $x2960 $x2745 $x1470)))))))))))
(assert
 (let (($x934 (= cell_3_3 2)))
 (or (= cell_3_3 1) $x934 (= cell_3_3 3) (= cell_3_3 4) (= cell_3_3 5) (= cell_3_3 6) (= cell_3_3 7) (= cell_3_3 8) (= cell_3_3 9))))
(assert
 (let (($x2656 (= cell_4_3 9)))
 (let (($x332 (= cell_4_3 8)))
 (let (($x1510 (= cell_4_3 7)))
 (let (($x988 (= cell_4_3 6)))
 (let (($x3099 (= cell_4_3 5)))
 (let (($x832 (= cell_4_3 4)))
 (let (($x3217 (= cell_4_3 3)))
 (let (($x680 (= cell_4_3 2)))
 (let (($x1236 (= cell_4_3 1)))
 (or $x1236 $x680 $x3217 $x832 $x3099 $x988 $x1510 $x332 $x2656)))))))))))
(assert
 (let (($x1994 (= cell_5_3 9)))
 (let (($x1789 (= cell_5_3 8)))
 (let (($x3507 (= cell_5_3 7)))
 (let (($x2141 (= cell_5_3 6)))
 (let (($x1163 (= cell_5_3 5)))
 (let (($x2844 (= cell_5_3 4)))
 (let (($x1610 (= cell_5_3 3)))
 (let (($x590 (= cell_5_3 2)))
 (let (($x1839 (= cell_5_3 1)))
 (or $x1839 $x590 $x1610 $x2844 $x1163 $x2141 $x3507 $x1789 $x1994)))))))))))
(assert
 (let (($x920 (= cell_6_3 9)))
 (let (($x1740 (= cell_6_3 8)))
 (let (($x2457 (= cell_6_3 7)))
 (let (($x225 (= cell_6_3 6)))
 (let (($x2938 (= cell_6_3 5)))
 (let (($x3915 (= cell_6_3 4)))
 (let (($x1300 (= cell_6_3 3)))
 (let (($x797 (= cell_6_3 2)))
 (let (($x3435 (= cell_6_3 1)))
 (or $x3435 $x797 $x1300 $x3915 $x2938 $x225 $x2457 $x1740 $x920)))))))))))
(assert
 (let (($x840 (= cell_7_3 9)))
 (let (($x1637 (= cell_7_3 8)))
 (let (($x250 (= cell_7_3 7)))
 (let (($x2349 (= cell_7_3 6)))
 (let (($x1022 (= cell_7_3 5)))
 (let (($x2650 (= cell_7_3 4)))
 (let (($x303 (= cell_7_3 3)))
 (let (($x732 (= cell_7_3 2)))
 (let (($x2332 (= cell_7_3 1)))
 (or $x2332 $x732 $x303 $x2650 $x1022 $x2349 $x250 $x1637 $x840)))))))))))
(assert
 (let (($x2918 (= cell_8_3 9)))
 (let (($x1716 (= cell_8_3 8)))
 (let (($x3154 (= cell_8_3 7)))
 (let (($x1210 (= cell_8_3 6)))
 (let (($x2539 (= cell_8_3 5)))
 (let (($x151 (= cell_8_3 4)))
 (let (($x1339 (= cell_8_3 3)))
 (let (($x876 (= cell_8_3 2)))
 (let (($x1252 (= cell_8_3 1)))
 (or $x1252 $x876 $x1339 $x151 $x2539 $x1210 $x3154 $x1716 $x2918)))))))))))
(assert
 (let (($x316 (= cell_9_3 9)))
 (let (($x990 (= cell_9_3 8)))
 (let (($x3590 (= cell_9_3 7)))
 (let (($x618 (= cell_9_3 6)))
 (let (($x1589 (= cell_9_3 5)))
 (let (($x428 (= cell_9_3 4)))
 (let (($x602 (= cell_9_3 3)))
 (let (($x381 (= cell_9_3 2)))
 (let (($x2935 (= cell_9_3 1)))
 (or $x2935 $x381 $x602 $x428 $x1589 $x618 $x3590 $x990 $x316)))))))))))
(assert
 (let (($x3762 (= cell_1_4 9)))
 (let (($x947 (= cell_1_4 8)))
 (let (($x1408 (= cell_1_4 7)))
 (let (($x794 (= cell_1_4 6)))
 (let (($x1953 (= cell_1_4 5)))
 (let (($x1429 (= cell_1_4 4)))
 (let (($x731 (= cell_1_4 3)))
 (let (($x1823 (= cell_1_4 2)))
 (let (($x161 (= cell_1_4 1)))
 (or $x161 $x1823 $x731 $x1429 $x1953 $x794 $x1408 $x947 $x3762)))))))))))
(assert
 (let (($x2837 (= cell_2_4 9)))
 (let (($x419 (= cell_2_4 8)))
 (let (($x2231 (= cell_2_4 7)))
 (let (($x1521 (= cell_2_4 6)))
 (let (($x2934 (= cell_2_4 5)))
 (let (($x837 (= cell_2_4 4)))
 (let (($x1848 (= cell_2_4 3)))
 (let (($x905 (= cell_2_4 2)))
 (let (($x370 (= cell_2_4 1)))
 (or $x370 $x905 $x1848 $x837 $x2934 $x1521 $x2231 $x419 $x2837)))))))))))
(assert
 (let (($x2477 (= cell_3_4 9)))
 (let (($x1900 (= cell_3_4 8)))
 (let (($x2771 (= cell_3_4 7)))
 (let (($x2227 (= cell_3_4 6)))
 (let (($x1369 (= cell_3_4 5)))
 (let (($x93 (= cell_3_4 4)))
 (let (($x1448 (= cell_3_4 3)))
 (let (($x2240 (= cell_3_4 2)))
 (let (($x109 (= cell_3_4 1)))
 (or $x109 $x2240 $x1448 $x93 $x1369 $x2227 $x2771 $x1900 $x2477)))))))))))
(assert
 (let (($x2903 (= cell_4_4 2)))
 (or (= cell_4_4 1) $x2903 (= cell_4_4 3) (= cell_4_4 4) (= cell_4_4 5) (= cell_4_4 6) (= cell_4_4 7) (= cell_4_4 8) (= cell_4_4 9))))
(assert
 (let (($x376 (= cell_5_4 9)))
 (let (($x1338 (= cell_5_4 8)))
 (let (($x2146 (= cell_5_4 7)))
 (let (($x13 (= cell_5_4 6)))
 (let (($x849 (= cell_5_4 5)))
 (let (($x326 (= cell_5_4 4)))
 (let (($x1058 (= cell_5_4 3)))
 (let (($x2931 (= cell_5_4 2)))
 (let (($x1413 (= cell_5_4 1)))
 (or $x1413 $x2931 $x1058 $x326 $x849 $x13 $x2146 $x1338 $x376)))))))))))
(assert
 (let (($x2281 (= cell_6_4 9)))
 (let (($x2181 (= cell_6_4 8)))
 (let (($x182 (= cell_6_4 7)))
 (let (($x1831 (= cell_6_4 6)))
 (let (($x3287 (= cell_6_4 5)))
 (let (($x2041 (= cell_6_4 4)))
 (let (($x3083 (= cell_6_4 3)))
 (let (($x423 (= cell_6_4 2)))
 (let (($x168 (= cell_6_4 1)))
 (or $x168 $x423 $x3083 $x2041 $x3287 $x1831 $x182 $x2181 $x2281)))))))))))
(assert
 (let (($x1919 (= cell_7_4 1)))
 (or $x1919 (= cell_7_4 2) (= cell_7_4 3) (= cell_7_4 4) (= cell_7_4 5) (= cell_7_4 6) (= cell_7_4 7) (= cell_7_4 8) (= cell_7_4 9))))
(assert
 (let (($x2118 (= cell_8_4 9)))
 (let (($x3494 (= cell_8_4 8)))
 (let (($x237 (= cell_8_4 7)))
 (let (($x2671 (= cell_8_4 6)))
 (let (($x2343 (= cell_8_4 5)))
 (let (($x83 (= cell_8_4 4)))
 (let (($x2021 (= cell_8_4 3)))
 (let (($x1608 (= cell_8_4 2)))
 (let (($x2126 (= cell_8_4 1)))
 (or $x2126 $x1608 $x2021 $x83 $x2343 $x2671 $x237 $x3494 $x2118)))))))))))
(assert
 (let (($x3528 (= cell_9_4 9)))
 (let (($x3272 (= cell_9_4 8)))
 (let (($x699 (= cell_9_4 7)))
 (let (($x2697 (= cell_9_4 6)))
 (let (($x827 (= cell_9_4 5)))
 (let (($x410 (= cell_9_4 4)))
 (let (($x562 (= cell_9_4 3)))
 (let (($x1553 (= cell_9_4 2)))
 (let (($x1782 (= cell_9_4 1)))
 (or $x1782 $x1553 $x562 $x410 $x827 $x2697 $x699 $x3272 $x3528)))))))))))
(assert
 (let (($x1391 (= cell_1_5 9)))
 (let (($x2479 (= cell_1_5 8)))
 (let (($x2795 (= cell_1_5 7)))
 (let (($x2361 (= cell_1_5 6)))
 (let (($x3236 (= cell_1_5 5)))
 (let (($x1846 (= cell_1_5 4)))
 (let (($x1158 (= cell_1_5 3)))
 (let (($x2419 (= cell_1_5 2)))
 (let (($x3219 (= cell_1_5 1)))
 (or $x3219 $x2419 $x1158 $x1846 $x3236 $x2361 $x2795 $x2479 $x1391)))))))))))
(assert
 (let (($x1012 (= cell_2_5 9)))
 (let (($x2069 (= cell_2_5 8)))
 (let (($x3163 (= cell_2_5 7)))
 (let (($x2789 (= cell_2_5 6)))
 (let (($x2676 (= cell_2_5 5)))
 (let (($x2530 (= cell_2_5 4)))
 (let (($x3170 (= cell_2_5 3)))
 (let (($x464 (= cell_2_5 2)))
 (let (($x1119 (= cell_2_5 1)))
 (or $x1119 $x464 $x3170 $x2530 $x2676 $x2789 $x3163 $x2069 $x1012)))))))))))
(assert
 (let (($x3722 (= cell_3_5 9)))
 (let (($x1037 (= cell_3_5 8)))
 (let (($x141 (= cell_3_5 7)))
 (let (($x811 (= cell_3_5 6)))
 (let (($x3461 (= cell_3_5 5)))
 (let (($x1313 (= cell_3_5 4)))
 (let (($x2109 (= cell_3_5 3)))
 (let (($x1558 (= cell_3_5 2)))
 (let (($x2721 (= cell_3_5 1)))
 (or $x2721 $x1558 $x2109 $x1313 $x3461 $x811 $x141 $x1037 $x3722)))))))))))
(assert
 (let (($x2856 (= cell_4_5 1)))
 (or $x2856 (= cell_4_5 2) (= cell_4_5 3) (= cell_4_5 4) (= cell_4_5 5) (= cell_4_5 6) (= cell_4_5 7) (= cell_4_5 8) (= cell_4_5 9))))
(assert
 (let (($x233 (= cell_5_5 9)))
 (let (($x2910 (= cell_5_5 8)))
 (let (($x1483 (= cell_5_5 7)))
 (let (($x1731 (= cell_5_5 6)))
 (let (($x3634 (= cell_5_5 5)))
 (let (($x2985 (= cell_5_5 4)))
 (let (($x2346 (= cell_5_5 3)))
 (let (($x2680 (= cell_5_5 2)))
 (let (($x2647 (= cell_5_5 1)))
 (or $x2647 $x2680 $x2346 $x2985 $x3634 $x1731 $x1483 $x2910 $x233)))))))))))
(assert
 (let (($x1647 (= cell_6_5 9)))
 (let (($x2076 (= cell_6_5 8)))
 (let (($x469 (= cell_6_5 7)))
 (let (($x330 (= cell_6_5 6)))
 (let (($x2170 (= cell_6_5 5)))
 (let (($x2197 (= cell_6_5 4)))
 (let (($x3499 (= cell_6_5 3)))
 (let (($x3002 (= cell_6_5 2)))
 (let (($x1072 (= cell_6_5 1)))
 (or $x1072 $x3002 $x3499 $x2197 $x2170 $x330 $x469 $x2076 $x1647)))))))))))
(assert
 (let (($x1005 (= cell_7_5 9)))
 (let (($x1403 (= cell_7_5 8)))
 (let (($x1204 (= cell_7_5 7)))
 (let (($x122 (= cell_7_5 6)))
 (let (($x1720 (= cell_7_5 5)))
 (let (($x1149 (= cell_7_5 4)))
 (let (($x2458 (= cell_7_5 3)))
 (let (($x687 (= cell_7_5 2)))
 (let (($x831 (= cell_7_5 1)))
 (or $x831 $x687 $x2458 $x1149 $x1720 $x122 $x1204 $x1403 $x1005)))))))))))
(assert
 (let (($x102 (= cell_8_5 9)))
 (let (($x123 (= cell_8_5 8)))
 (let (($x1739 (= cell_8_5 7)))
 (let (($x1316 (= cell_8_5 6)))
 (let (($x2230 (= cell_8_5 5)))
 (let (($x3228 (= cell_8_5 4)))
 (let (($x2782 (= cell_8_5 3)))
 (let (($x1192 (= cell_8_5 2)))
 (let (($x1694 (= cell_8_5 1)))
 (or $x1694 $x1192 $x2782 $x3228 $x2230 $x1316 $x1739 $x123 $x102)))))))))))
(assert
 (let (($x713 (= cell_9_5 2)))
 (or (= cell_9_5 1) $x713 (= cell_9_5 3) (= cell_9_5 4) (= cell_9_5 5) (= cell_9_5 6) (= cell_9_5 7) (= cell_9_5 8) (= cell_9_5 9))))
(assert
 (let (($x470 (= cell_1_6 2)))
 (or (= cell_1_6 1) $x470 (= cell_1_6 3) (= cell_1_6 4) (= cell_1_6 5) (= cell_1_6 6) (= cell_1_6 7) (= cell_1_6 8) (= cell_1_6 9))))
(assert
 (let (($x1267 (= cell_2_6 1)))
 (or $x1267 (= cell_2_6 2) (= cell_2_6 3) (= cell_2_6 4) (= cell_2_6 5) (= cell_2_6 6) (= cell_2_6 7) (= cell_2_6 8) (= cell_2_6 9))))
(assert
 (let (($x1122 (= cell_3_6 9)))
 (let (($x1662 (= cell_3_6 8)))
 (let (($x2428 (= cell_3_6 7)))
 (let (($x2068 (= cell_3_6 6)))
 (let (($x624 (= cell_3_6 5)))
 (let (($x1291 (= cell_3_6 4)))
 (let (($x1832 (= cell_3_6 3)))
 (let (($x2734 (= cell_3_6 2)))
 (let (($x728 (= cell_3_6 1)))
 (or $x728 $x2734 $x1832 $x1291 $x624 $x2068 $x2428 $x1662 $x1122)))))))))))
(assert
 (let (($x804 (= cell_4_6 2)))
 (let (($x1143 (= cell_4_6 1)))
 (or $x1143 $x804 (= cell_4_6 3) (= cell_4_6 4) (= cell_4_6 5) (= cell_4_6 6) (= cell_4_6 7) (= cell_4_6 8) (= cell_4_6 9)))))
(assert
 (let (($x1829 (= cell_5_6 9)))
 (let (($x1666 (= cell_5_6 8)))
 (let (($x1661 (= cell_5_6 7)))
 (let (($x2108 (= cell_5_6 6)))
 (let (($x1025 (= cell_5_6 5)))
 (let (($x3278 (= cell_5_6 4)))
 (let (($x2522 (= cell_5_6 3)))
 (let (($x1805 (= cell_5_6 2)))
 (let (($x1503 (= cell_5_6 1)))
 (or $x1503 $x1805 $x2522 $x3278 $x1025 $x2108 $x1661 $x1666 $x1829)))))))))))
(assert
 (let (($x1108 (= cell_6_6 9)))
 (let (($x1282 (= cell_6_6 8)))
 (let (($x1342 (= cell_6_6 7)))
 (let (($x50 (= cell_6_6 6)))
 (let (($x1613 (= cell_6_6 5)))
 (let (($x3098 (= cell_6_6 4)))
 (let (($x635 (= cell_6_6 3)))
 (let (($x775 (= cell_6_6 2)))
 (let (($x946 (= cell_6_6 1)))
 (or $x946 $x775 $x635 $x3098 $x1613 $x50 $x1342 $x1282 $x1108)))))))))))
(assert
 (let (($x1199 (= cell_7_6 9)))
 (let (($x2845 (= cell_7_6 8)))
 (let (($x1241 (= cell_7_6 7)))
 (let (($x189 (= cell_7_6 6)))
 (let (($x2449 (= cell_7_6 5)))
 (let (($x2296 (= cell_7_6 4)))
 (let (($x3088 (= cell_7_6 3)))
 (let (($x633 (= cell_7_6 2)))
 (let (($x2043 (= cell_7_6 1)))
 (or $x2043 $x633 $x3088 $x2296 $x2449 $x189 $x1241 $x2845 $x1199)))))))))))
(assert
 (let (($x2337 (= cell_8_6 9)))
 (let (($x1373 (= cell_8_6 8)))
 (let (($x630 (= cell_8_6 7)))
 (let (($x1978 (= cell_8_6 6)))
 (let (($x1131 (= cell_8_6 5)))
 (let (($x3134 (= cell_8_6 4)))
 (let (($x1099 (= cell_8_6 3)))
 (let (($x126 (= cell_8_6 2)))
 (let (($x2557 (= cell_8_6 1)))
 (or $x2557 $x126 $x1099 $x3134 $x1131 $x1978 $x630 $x1373 $x2337)))))))))))
(assert
 (let (($x321 (= cell_9_6 9)))
 (let (($x491 (= cell_9_6 8)))
 (let (($x2294 (= cell_9_6 7)))
 (let (($x629 (= cell_9_6 6)))
 (let (($x3114 (= cell_9_6 5)))
 (let (($x1719 (= cell_9_6 4)))
 (let (($x589 (= cell_9_6 3)))
 (let (($x1659 (= cell_9_6 2)))
 (let (($x992 (= cell_9_6 1)))
 (or $x992 $x1659 $x589 $x1719 $x3114 $x629 $x2294 $x491 $x321)))))))))))
(assert
 (let (($x2635 (= cell_1_7 9)))
 (let (($x1670 (= cell_1_7 8)))
 (let (($x2785 (= cell_1_7 7)))
 (let (($x2122 (= cell_1_7 6)))
 (let (($x3449 (= cell_1_7 5)))
 (let (($x2849 (= cell_1_7 4)))
 (let (($x2752 (= cell_1_7 3)))
 (let (($x2613 (= cell_1_7 2)))
 (let (($x3773 (= cell_1_7 1)))
 (or $x3773 $x2613 $x2752 $x2849 $x3449 $x2122 $x2785 $x1670 $x2635)))))))))))
(assert
 (let (($x359 (= cell_2_7 9)))
 (let (($x2611 (= cell_2_7 8)))
 (let (($x2571 (= cell_2_7 7)))
 (let (($x856 (= cell_2_7 6)))
 (let (($x640 (= cell_2_7 5)))
 (let (($x1633 (= cell_2_7 4)))
 (let (($x3338 (= cell_2_7 3)))
 (let (($x2826 (= cell_2_7 2)))
 (let (($x2201 (= cell_2_7 1)))
 (or $x2201 $x2826 $x3338 $x1633 $x640 $x856 $x2571 $x2611 $x359)))))))))))
(assert
 (let (($x117 (= cell_3_7 9)))
 (let (($x125 (= cell_3_7 8)))
 (let (($x53 (= cell_3_7 7)))
 (let (($x3215 (= cell_3_7 6)))
 (let (($x2064 (= cell_3_7 5)))
 (let (($x11 (= cell_3_7 4)))
 (let (($x2773 (= cell_3_7 3)))
 (let (($x1981 (= cell_3_7 2)))
 (let (($x3014 (= cell_3_7 1)))
 (or $x3014 $x1981 $x2773 $x11 $x2064 $x3215 $x53 $x125 $x117)))))))))))
(assert
 (let (($x942 (= cell_4_7 9)))
 (let (($x2102 (= cell_4_7 8)))
 (let (($x3136 (= cell_4_7 7)))
 (let (($x1463 (= cell_4_7 6)))
 (let (($x461 (= cell_4_7 5)))
 (let (($x203 (= cell_4_7 4)))
 (let (($x3031 (= cell_4_7 3)))
 (let (($x2008 (= cell_4_7 2)))
 (let (($x917 (= cell_4_7 1)))
 (or $x917 $x2008 $x3031 $x203 $x461 $x1463 $x3136 $x2102 $x942)))))))))))
(assert
 (let (($x2160 (= cell_5_7 9)))
 (let (($x1412 (= cell_5_7 8)))
 (let (($x2517 (= cell_5_7 7)))
 (let (($x1105 (= cell_5_7 6)))
 (let (($x2030 (= cell_5_7 5)))
 (let (($x48 (= cell_5_7 4)))
 (let (($x494 (= cell_5_7 3)))
 (let (($x1797 (= cell_5_7 2)))
 (let (($x2626 (= cell_5_7 1)))
 (or $x2626 $x1797 $x494 $x48 $x2030 $x1105 $x2517 $x1412 $x2160)))))))))))
(assert
 (let (($x2284 (= cell_6_7 9)))
 (let (($x530 (= cell_6_7 8)))
 (let (($x228 (= cell_6_7 7)))
 (let (($x2658 (= cell_6_7 6)))
 (let (($x1152 (= cell_6_7 5)))
 (let (($x3060 (= cell_6_7 4)))
 (let (($x1923 (= cell_6_7 3)))
 (let (($x1449 (= cell_6_7 2)))
 (let (($x2067 (= cell_6_7 1)))
 (or $x2067 $x1449 $x1923 $x3060 $x1152 $x2658 $x228 $x530 $x2284)))))))))))
(assert
 (let (($x1422 (= cell_7_7 9)))
 (let (($x1081 (= cell_7_7 8)))
 (let (($x1495 (= cell_7_7 7)))
 (let (($x101 (= cell_7_7 6)))
 (let (($x1650 (= cell_7_7 5)))
 (let (($x3542 (= cell_7_7 4)))
 (let (($x1899 (= cell_7_7 3)))
 (let (($x501 (= cell_7_7 2)))
 (let (($x2703 (= cell_7_7 1)))
 (or $x2703 $x501 $x1899 $x3542 $x1650 $x101 $x1495 $x1081 $x1422)))))))))))
(assert
 (let (($x391 (= cell_8_7 2)))
 (or (= cell_8_7 1) $x391 (= cell_8_7 3) (= cell_8_7 4) (= cell_8_7 5) (= cell_8_7 6) (= cell_8_7 7) (= cell_8_7 8) (= cell_8_7 9))))
(assert
 (let (($x58 (= cell_9_7 1)))
 (or $x58 (= cell_9_7 2) (= cell_9_7 3) (= cell_9_7 4) (= cell_9_7 5) (= cell_9_7 6) (= cell_9_7 7) (= cell_9_7 8) (= cell_9_7 9))))
(assert
 (let (($x3680 (= cell_1_8 9)))
 (let (($x358 (= cell_1_8 8)))
 (let (($x1017 (= cell_1_8 7)))
 (let (($x3445 (= cell_1_8 6)))
 (let (($x2645 (= cell_1_8 5)))
 (let (($x2385 (= cell_1_8 4)))
 (let (($x1528 (= cell_1_8 3)))
 (let (($x735 (= cell_1_8 2)))
 (let (($x287 (= cell_1_8 1)))
 (or $x287 $x735 $x1528 $x2385 $x2645 $x3445 $x1017 $x358 $x3680)))))))))))
(assert
 (let (($x2965 (= cell_2_8 2)))
 (or (= cell_2_8 1) $x2965 (= cell_2_8 3) (= cell_2_8 4) (= cell_2_8 5) (= cell_2_8 6) (= cell_2_8 7) (= cell_2_8 8) (= cell_2_8 9))))
(assert
 (let (($x1976 (= cell_3_8 9)))
 (let (($x1877 (= cell_3_8 8)))
 (let (($x894 (= cell_3_8 7)))
 (let (($x845 (= cell_3_8 6)))
 (let (($x1762 (= cell_3_8 5)))
 (let (($x162 (= cell_3_8 4)))
 (let (($x2283 (= cell_3_8 3)))
 (let (($x2292 (= cell_3_8 2)))
 (let (($x3356 (= cell_3_8 1)))
 (or $x3356 $x2292 $x2283 $x162 $x1762 $x845 $x894 $x1877 $x1976)))))))))))
(assert
 (let (($x1551 (= cell_4_8 9)))
 (let (($x2144 (= cell_4_8 8)))
 (let (($x484 (= cell_4_8 7)))
 (let (($x1157 (= cell_4_8 6)))
 (let (($x2389 (= cell_4_8 5)))
 (let (($x2875 (= cell_4_8 4)))
 (let (($x814 (= cell_4_8 3)))
 (let (($x3390 (= cell_4_8 2)))
 (let (($x2125 (= cell_4_8 1)))
 (or $x2125 $x3390 $x814 $x2875 $x2389 $x1157 $x484 $x2144 $x1551)))))))))))
(assert
 (let (($x2719 (= cell_5_8 1)))
 (or $x2719 (= cell_5_8 2) (= cell_5_8 3) (= cell_5_8 4) (= cell_5_8 5) (= cell_5_8 6) (= cell_5_8 7) (= cell_5_8 8) (= cell_5_8 9))))
(assert
 (let (($x1606 (= cell_6_8 9)))
 (let (($x344 (= cell_6_8 8)))
 (let (($x169 (= cell_6_8 7)))
 (let (($x2639 (= cell_6_8 6)))
 (let (($x2551 (= cell_6_8 5)))
 (let (($x506 (= cell_6_8 4)))
 (let (($x1496 (= cell_6_8 3)))
 (let (($x2003 (= cell_6_8 2)))
 (let (($x1294 (= cell_6_8 1)))
 (or $x1294 $x2003 $x1496 $x506 $x2551 $x2639 $x169 $x344 $x1606)))))))))))
(assert
 (let (($x2427 (= cell_7_8 9)))
 (let (($x3830 (= cell_7_8 8)))
 (let (($x1712 (= cell_7_8 7)))
 (let (($x1176 (= cell_7_8 6)))
 (let (($x2936 (= cell_7_8 5)))
 (let (($x1648 (= cell_7_8 4)))
 (let (($x1871 (= cell_7_8 3)))
 (let (($x2761 (= cell_7_8 2)))
 (let (($x1030 (= cell_7_8 1)))
 (or $x1030 $x2761 $x1871 $x1648 $x2936 $x1176 $x1712 $x3830 $x2427)))))))))))
(assert
 (let (($x1195 (= cell_8_8 9)))
 (let (($x1952 (= cell_8_8 8)))
 (let (($x270 (= cell_8_8 7)))
 (let (($x89 (= cell_8_8 6)))
 (let (($x2993 (= cell_8_8 5)))
 (let (($x2034 (= cell_8_8 4)))
 (let (($x1546 (= cell_8_8 3)))
 (let (($x882 (= cell_8_8 2)))
 (let (($x1399 (= cell_8_8 1)))
 (or $x1399 $x882 $x1546 $x2034 $x2993 $x89 $x270 $x1952 $x1195)))))))))))
(assert
 (let (($x3324 (= cell_9_8 2)))
 (let (($x1686 (= cell_9_8 1)))
 (or $x1686 $x3324 (= cell_9_8 3) (= cell_9_8 4) (= cell_9_8 5) (= cell_9_8 6) (= cell_9_8 7) (= cell_9_8 8) (= cell_9_8 9)))))
(assert
 (let (($x3541 (= cell_1_9 9)))
 (let (($x1892 (= cell_1_9 8)))
 (let (($x190 (= cell_1_9 7)))
 (let (($x2209 (= cell_1_9 6)))
 (let (($x581 (= cell_1_9 5)))
 (let (($x3369 (= cell_1_9 4)))
 (let (($x1226 (= cell_1_9 3)))
 (let (($x777 (= cell_1_9 2)))
 (let (($x2755 (= cell_1_9 1)))
 (or $x2755 $x777 $x1226 $x3369 $x581 $x2209 $x190 $x1892 $x3541)))))))))))
(assert
 (let (($x3072 (= cell_2_9 9)))
 (let (($x1813 (= cell_2_9 8)))
 (let (($x1574 (= cell_2_9 7)))
 (let (($x3041 (= cell_2_9 6)))
 (let (($x2695 (= cell_2_9 5)))
 (let (($x1044 (= cell_2_9 4)))
 (let (($x2191 (= cell_2_9 3)))
 (let (($x2053 (= cell_2_9 2)))
 (let (($x2342 (= cell_2_9 1)))
 (or $x2342 $x2053 $x2191 $x1044 $x2695 $x3041 $x1574 $x1813 $x3072)))))))))))
(assert
 (let (($x3851 (= cell_3_9 1)))
 (or $x3851 (= cell_3_9 2) (= cell_3_9 3) (= cell_3_9 4) (= cell_3_9 5) (= cell_3_9 6) (= cell_3_9 7) (= cell_3_9 8) (= cell_3_9 9))))
(assert
 (let (($x2505 (= cell_4_9 9)))
 (let (($x1675 (= cell_4_9 8)))
 (let (($x2017 (= cell_4_9 7)))
 (let (($x964 (= cell_4_9 6)))
 (let (($x3357 (= cell_4_9 5)))
 (let (($x1629 (= cell_4_9 4)))
 (let (($x24 (= cell_4_9 3)))
 (let (($x1465 (= cell_4_9 2)))
 (let (($x2253 (= cell_4_9 1)))
 (or $x2253 $x1465 $x24 $x1629 $x3357 $x964 $x2017 $x1675 $x2505)))))))))))
(assert
 (let (($x2490 (= cell_5_9 9)))
 (let (($x3434 (= cell_5_9 8)))
 (let (($x707 (= cell_5_9 7)))
 (let (($x610 (= cell_5_9 6)))
 (let (($x1450 (= cell_5_9 5)))
 (let (($x683 (= cell_5_9 4)))
 (let (($x2622 (= cell_5_9 3)))
 (let (($x1752 (= cell_5_9 2)))
 (let (($x235 (= cell_5_9 1)))
 (or $x235 $x1752 $x2622 $x683 $x1450 $x610 $x707 $x3434 $x2490)))))))))))
(assert
 (let (($x537 (= cell_6_9 2)))
 (or (= cell_6_9 1) $x537 (= cell_6_9 3) (= cell_6_9 4) (= cell_6_9 5) (= cell_6_9 6) (= cell_6_9 7) (= cell_6_9 8) (= cell_6_9 9))))
(assert
 (let (($x2367 (= cell_7_9 9)))
 (let (($x2739 (= cell_7_9 8)))
 (let (($x1946 (= cell_7_9 7)))
 (let (($x1820 (= cell_7_9 6)))
 (let (($x424 (= cell_7_9 5)))
 (let (($x3931 (= cell_7_9 4)))
 (let (($x1239 (= cell_7_9 3)))
 (let (($x3006 (= cell_7_9 2)))
 (let (($x39 (= cell_7_9 1)))
 (or $x39 $x3006 $x1239 $x3931 $x424 $x1820 $x1946 $x2739 $x2367)))))))))))
(assert
 (let (($x2450 (= cell_8_9 9)))
 (let (($x733 (= cell_8_9 8)))
 (let (($x1405 (= cell_8_9 7)))
 (let (($x1407 (= cell_8_9 6)))
 (let (($x2128 (= cell_8_9 5)))
 (let (($x2020 (= cell_8_9 4)))
 (let (($x2287 (= cell_8_9 3)))
 (let (($x434 (= cell_8_9 2)))
 (let (($x3571 (= cell_8_9 1)))
 (or $x3571 $x434 $x2287 $x2020 $x2128 $x1407 $x1405 $x733 $x2450)))))))))))
(assert
 (let (($x743 (= cell_9_9 2)))
 (let (($x1328 (= cell_9_9 1)))
 (or $x1328 $x743 (= cell_9_9 3) (= cell_9_9 4) (= cell_9_9 5) (= cell_9_9 6) (= cell_9_9 7) (= cell_9_9 8) (= cell_9_9 9)))))
(assert
 (and (distinct cell_1_1 cell_1_2 cell_1_3 cell_1_4 cell_1_5 cell_1_6 cell_1_7 cell_1_8 cell_1_9) true))
(assert
 (and (distinct cell_2_1 cell_2_2 cell_2_3 cell_2_4 cell_2_5 cell_2_6 cell_2_7 cell_2_8 cell_2_9) true))
(assert
 (and (distinct cell_3_1 cell_3_2 cell_3_3 cell_3_4 cell_3_5 cell_3_6 cell_3_7 cell_3_8 cell_3_9) true))
(assert
 (and (distinct cell_4_1 cell_4_2 cell_4_3 cell_4_4 cell_4_5 cell_4_6 cell_4_7 cell_4_8 cell_4_9) true))
(assert
 (and (distinct cell_5_1 cell_5_2 cell_5_3 cell_5_4 cell_5_5 cell_5_6 cell_5_7 cell_5_8 cell_5_9) true))
(assert
 (and (distinct cell_6_1 cell_6_2 cell_6_3 cell_6_4 cell_6_5 cell_6_6 cell_6_7 cell_6_8 cell_6_9) true))
(assert
 (and (distinct cell_7_1 cell_7_2 cell_7_3 cell_7_4 cell_7_5 cell_7_6 cell_7_7 cell_7_8 cell_7_9) true))
(assert
 (and (distinct cell_8_1 cell_8_2 cell_8_3 cell_8_4 cell_8_5 cell_8_6 cell_8_7 cell_8_8 cell_8_9) true))
(assert
 (and (distinct cell_9_1 cell_9_2 cell_9_3 cell_9_4 cell_9_5 cell_9_6 cell_9_7 cell_9_8 cell_9_9) true))
(assert
 (and (distinct cell_1_1 cell_2_1 cell_3_1 cell_4_1 cell_5_1 cell_6_1 cell_7_1 cell_8_1 cell_9_1) true))
(assert
 (and (distinct cell_1_2 cell_2_2 cell_3_2 cell_4_2 cell_5_2 cell_6_2 cell_7_2 cell_8_2 cell_9_2) true))
(assert
 (and (distinct cell_1_3 cell_2_3 cell_3_3 cell_4_3 cell_5_3 cell_6_3 cell_7_3 cell_8_3 cell_9_3) true))
(assert
 (and (distinct cell_1_4 cell_2_4 cell_3_4 cell_4_4 cell_5_4 cell_6_4 cell_7_4 cell_8_4 cell_9_4) true))
(assert
 (and (distinct cell_1_5 cell_2_5 cell_3_5 cell_4_5 cell_5_5 cell_6_5 cell_7_5 cell_8_5 cell_9_5) true))
(assert
 (and (distinct cell_1_6 cell_2_6 cell_3_6 cell_4_6 cell_5_6 cell_6_6 cell_7_6 cell_8_6 cell_9_6) true))
(assert
 (and (distinct cell_1_7 cell_2_7 cell_3_7 cell_4_7 cell_5_7 cell_6_7 cell_7_7 cell_8_7 cell_9_7) true))
(assert
 (and (distinct cell_1_8 cell_2_8 cell_3_8 cell_4_8 cell_5_8 cell_6_8 cell_7_8 cell_8_8 cell_9_8) true))
(assert
 (and (distinct cell_1_9 cell_2_9 cell_3_9 cell_4_9 cell_5_9 cell_6_9 cell_7_9 cell_8_9 cell_9_9) true))
(assert
 (and (distinct cell_1_1 cell_1_2 cell_1_3 cell_2_1 cell_2_2 cell_2_3 cell_3_1 cell_3_2 cell_3_3) true))
(assert
 (and (distinct cell_1_4 cell_1_5 cell_1_6 cell_2_4 cell_2_5 cell_2_6 cell_3_4 cell_3_5 cell_3_6) true))
(assert
 (and (distinct cell_1_7 cell_1_8 cell_1_9 cell_2_7 cell_2_8 cell_2_9 cell_3_7 cell_3_8 cell_3_9) true))
(assert
 (and (distinct cell_4_1 cell_4_2 cell_4_3 cell_5_1 cell_5_2 cell_5_3 cell_6_1 cell_6_2 cell_6_3) true))
(assert
 (and (distinct cell_4_4 cell_4_5 cell_4_6 cell_5_4 cell_5_5 cell_5_6 cell_6_4 cell_6_5 cell_6_6) true))
(assert
 (and (distinct cell_4_7 cell_4_8 cell_4_9 cell_5_7 cell_5_8 cell_5_9 cell_6_7 cell_6_8 cell_6_9) true))
(assert
 (and (distinct cell_7_1 cell_7_2 cell_7_3 cell_8_1 cell_8_2 cell_8_3 cell_9_1 cell_9_2 cell_9_3) true))
(assert
 (and (distinct cell_7_4 cell_7_5 cell_7_6 cell_8_4 cell_8_5 cell_8_6 cell_9_4 cell_9_5 cell_9_6) true))
(assert
 (and (distinct cell_7_7 cell_7_8 cell_7_9 cell_8_7 cell_8_8 cell_8_9 cell_9_7 cell_9_8 cell_9_9) true))
(assert
 (let (($x1033 (and (distinct cell_5_9 cell_6_8 cell_7_7 cell_8_6) true)))
 (let (($x357 (and (distinct cell_2_9 cell_3_8 cell_4_7 cell_5_6 cell_6_5 cell_7_4 cell_8_3 cell_9_2) true)))
 (let (($x1604 (and (distinct cell_1_8 cell_2_7 cell_3_6 cell_4_5 cell_5_4 cell_6_3 cell_7_2 cell_8_1) true)))
 (let (($x121 (and (distinct cell_1_5 cell_2_4 cell_3_3 cell_4_2) true)))
 (let (($x817 (and (distinct cell_5_1 cell_6_2 cell_7_3 cell_8_4) true)))
 (let (($x2929 (and (distinct cell_2_1 cell_3_2 cell_4_3 cell_5_4 cell_6_5 cell_7_6 cell_8_7 cell_9_8) true)))
 (let (($x2406 (and (distinct cell_1_2 cell_2_3 cell_3_4 cell_4_5 cell_5_6 cell_6_7 cell_7_8 cell_8_9) true)))
 (let (($x1783 (and (distinct cell_1_5 cell_2_6 cell_3_7 cell_4_8) true)))
 (and $x1783 $x2406 $x2929 $x817 $x121 $x1604 $x357 $x1033))))))))))
(assert
 (= cell_1_4 3))
(check-sat)
